10213.61,59.55,73.87
10066.49,60.42,74.95
9717.37,62.59,77.64
9856.53,61.71,76.55
10054.18,60.49,75.04
10280.03,59.16,73.39
10124.5,60.07,74.52
9576.5,63.51,78.79
9990.59,60.88,75.52
10783.61,56.4,69.97
9522.89,63.87,79.23
10537.34,57.72,71.6
10298.66,59.06,73.26
9893.7,61.47,76.26
10184.42,59.72,74.08
9795.6,62.09,77.02
10000.39,60.82,75.45
10180.89,59.74,74.11
10018.76,60.71,75.31
9851.48,61.74,76.59
